
Gurobi 10.0.3 (linux64, gurobi_cl) logging started Thu Nov  2 11:38:56 2023

Set parameter Username
Set parameter TimeLimit to value 3600
Set parameter LogFile to value "RCPSP_828.log"
Set parameter Threads to value 32
Academic license - for non-commercial use only - expires 2024-10-30
Using license file /home/jrivera6/gurobi-licenses/v1003/compute-0-39/gurobi.lic

Gurobi Optimizer version 10.0.3 build v10.0.3rc0 (linux64)
Copyright (c) 2023, Gurobi Optimization, LLC

Read MPS format model from file RCPSP_828.mps
Reading time = 0.04 seconds
RCPSP_828: 19662 rows, 7750 columns, 60956 nonzeros

CPU model: Intel(R) Xeon(R) Gold 6242 CPU @ 2.80GHz, instruction set [SSE2|AVX|AVX2|AVX512]
Thread count: 32 physical cores, 32 logical processors, using up to 32 threads

Optimize a model with 19662 rows, 7750 columns and 60956 nonzeros
Model fingerprint: 0x217fd62c
Variable types: 62 continuous, 7688 integer (7688 binary)
Coefficient statistics:
  Matrix range     [1e+00, 4e+02]
  Objective range  [1e+00, 1e+00]
  Bounds range     [1e+00, 1e+00]
  RHS range        [1e+00, 4e+02]
Presolve removed 8065 rows and 2982 columns
Presolve time: 3.19s
Presolved: 11597 rows, 4768 columns, 36890 nonzeros
Variable types: 61 continuous, 4707 integer (4707 binary)

Root relaxation: objective 7.500000e+01, 1629 iterations, 0.03 seconds (0.01 work units)

    Nodes    |    Current Node    |     Objective Bounds      |     Work
 Expl Unexpl |  Obj  Depth IntInf | Incumbent    BestBd   Gap | It/Node Time

     0     0   75.00000    0    2          -   75.00000      -     -    3s
H    0     0                      81.0000000   78.00000  3.70%     -    3s
H    0     0                      80.0000000   78.00000  2.50%     -    3s
     0     0   78.00000    0   26   80.00000   78.00000  2.50%     -    4s
H    0     0                      78.0000000   78.00000  0.00%     -    8s
     0     0   78.00000    0    4   78.00000   78.00000  0.00%     -    8s

Explored 1 nodes (5464 simplex iterations) in 8.65 seconds (2.85 work units)
Thread count was 32 (of 32 available processors)

Solution count 3: 78 80 81 

Optimal solution found (tolerance 1.00e-04)
Best objective 7.800000000000e+01, best bound 7.800000000000e+01, gap 0.0000%

Wrote result file 'RCPSP_828.sol'

